
Gurobi 11.0.0 (win64, C++) logging started Tue Jul 29 12:29:02 2025

Set parameter TokenServer to value "141.76.38.119"
### START HEURISTIC APPROACH APPROACH ###
ProblemVariant: 1
### START PREPROCESSING ###
## Start start solution procedure ##
Start solution with 6 Vehicles and total costs 858.632 in 6.15709 s.
### END PREPROCESSING ###
Route 0 0-20-22-19-18-0 : weight util 0.287778 | volume util 0.492467 | infeasible with packing heuristic | feasible with CP model
Route 1 0-11-13-9-0 : weight util 0.350000 | volume util 0.605733 | infeasible with packing heuristic | feasible with CP model
Route 2 0-21-4-5-8-7-12-0 : weight util 0.394444 | volume util 0.632644 | infeasible with packing heuristic | feasible with CP model
Route 3 0-10-6-1-2-0 : weight util 0.996444 | volume util 0.456244 | infeasible with packing heuristic | feasible with CP model
Route 4 0-3-15-16-14-17-0 : weight util 0.235556 | volume util 0.674356 | infeasible with packing heuristic | feasible with CP model
